0001 17
0002 14
0003 21
0004 6
0005 25
0006 28
0007 27
0008 14
0009 7
0010 27
0011 32
0012 1
0013 35
0014 14
0015 11
0016 9
0017 15
0018 28
0019 2
0020 35
0021 11
0022 11
0023 33
0024 8
0025 19
0026 30
0027 12
0028 1
0029 17
0030 17
0031 1
0032 24
0033 15
0034 27
0035 35
0036 12
0037 31
0038 21
0039 5
0040 1
0041 21
0042 1
0043 25
0044 17
0045 27
0046 34
0047 11
0048 7
0049 20
0050 5
0051 22
0052 32
0053 31
0054 29
0055 4
0056 16
0057 1
0058 35
0059 27
0060 21
0061 22
0062 23
0063 30
0064 7
0065 10
0066 27
0067 12
0068 33
0069 30
0070 3
0071 3
0072 22
0073 18
0074 23
0075 16
0076 28
0077 12
0078 35
0079 3
0080 23
0081 35
0082 28
0083 16
0084 20
0085 32
0086 3
0087 10
0088 19
0089 6
0090 28
0091 22
0092 19
0093 26
0094 2
0095 4
0096 23
0097 10
0098 6
0099 6
0100 2
0101 19
0102 8
0103 22
0104 34
0105 9
0106 14
0107 3
0108 31
0109 27
0110 23
0111 28
0112 12
0113 35
0114 21
0115 29
0116 1
0117 33
0118 20
0119 16
0120 19
0121 24
0122 9
0123 6
0124 2
0125 1
0126 23
0127 26
0128 13
0129 15
0130 9
0131 14
0132 10
0133 15
0134 24
0135 30
0136 12
0137 4
0138 27
0139 2
0140 19
0141 30
0142 27
0143 6
0144 31
0145 11
0146 29
0147 26
0148 27
0149 20
0150 30
0151 35
0152 15
0153 10
0154 23
0155 33
0156 6
0157 8
0158 18
0159 14
0160 35
0161 1
0162 1
0163 14
0164 32
0165 22
0166 33
0167 9
0168 1
0169 4
0170 19
0171 8
0172 34
0173 13
0174 21
0175 27
0176 10
0177 24
0178 27
0179 13
0180 12
0181 14
0182 24
0183 32
0184 18
0185 2
0186 23
0187 15
0188 8
0189 1
0190 22
0191 35
0192 30
0193 26
0194 23
0195 12
0196 34
0197 30
0198 35
0199 5
0200 11
0201 18
0202 3
0203 15
0204 17
0205 25
0206 21
0207 30
0208 7
0209 14
0210 1
0211 25
0212 27
0213 1
0214 8
0215 32
0216 14
0217 22
0218 26
0219 4
0220 30
0221 20
0222 11
0223 1
0224 30
0225 24
0226 30
0227 35
0228 29
0229 6
0230 12
0231 18
0232 17
0233 1
0234 35
0235 6
0236 1
0237 27
0238 25
0239 25
0240 26
0241 8
0242 7
0243 28
0244 17
0245 9
0246 22
0247 32
0248 5
0249 8
0250 32
0251 28
0252 25
0253 17
0254 32
0255 30
0256 5
0257 11
0258 1
0259 17
0260 21
0261 29
0262 9
0263 7
0264 13
0265 13
0266 35
0267 19
0268 30
0269 22
0270 31
0271 1
0272 25
0273 7
0274 4
0275 16
0276 33
0277 25
0278 34
0279 19
0280 35
0281 2
0282 14
0283 17
0284 28
0285 23
0286 6
0287 5
0288 1
0289 3
0290 30
0291 32
0292 19
0293 35
0294 7
0295 35
0296 23
0297 13
0298 28
0299 18
0300 10
0301 17
0302 2
0303 28
0304 12
0305 30
0306 30
0307 27
0308 12
0309 26
0310 35
0311 18
0312 16
0313 6
0314 4
0315 31
0316 11
0317 22
0318 5
0319 24
0320 31
0321 32
0322 18
0323 1
0324 12
0325 34
0326 35
0327 1
0328 24
0329 5
0330 13
0331 35
0332 6
0333 30
0334 22
0335 7
0336 18
0337 3
0338 15
0339 1
0340 23
0341 9
0342 12
0343 35
0344 7
0345 1
0346 18
0347 5
0348 28
0349 17
0350 16
0351 28
0352 16
0353 35
0354 35
0355 19
0356 1
0357 5
0358 21
0359 5
0360 21
0361 18
0362 13
0363 34
0364 20
0365 17
0366 29
0367 27
0368 12
0369 6
0370 35
0371 14
0372 19
0373 33
0374 9
0375 35
0376 16
0377 26
0378 6
0379 31
0380 31
0381 34
0382 9
0383 9
0384 31
0385 33
0386 23
0387 25
0388 24
0389 29
0390 11
0391 33
0392 16
0393 4
0394 3
0395 31
0396 30
0397 7
0398 14
0399 21
0400 18
0401 11
0402 33
0403 18
0404 2
0405 35
0406 15
0407 25
0408 1
0409 11
0410 16
0411 3
0412 14
0413 28
0414 1
0415 7
0416 31
0417 1
0418 7
0419 29
0420 16
0421 2
0422 1
0423 7
0424 16
0425 4
0426 19
0427 1
0428 29
0429 35
0430 14
0431 26
0432 20
0433 13
0434 1
0435 4
0436 19
0437 31
0438 24
0439 8
0440 7
0441 31
0442 16
0443 8
0444 1
0445 9
0446 13
0447 18
0448 19
0449 24
0450 16
0451 10
0452 3
0453 6
0454 22
0455 35
0456 27
0457 11
0458 22
0459 35
0460 8
0461 17
0462 34
0463 3
0464 25
0465 3
0466 3
0467 31
0468 31
0469 5
0470 9
0471 18
0472 15
0473 26
0474 20
0475 33
0476 3
0477 18
0478 24
0479 8
0480 1
0481 20
0482 12
0483 12
0484 19
0485 35
0486 4
0487 23
0488 17
0489 14
0490 29
0491 10
0492 3
0493 18
0494 15
0495 7
0496 12
0497 31
0498 24
0499 18
0500 33
0501 26
0502 1
0503 9
0504 16
0505 21
0506 22
0507 3
0508 33
0509 23
0510 26
0511 25
0512 1
0513 29
0514 29
0515 2
0516 10
0517 34
0518 26
0519 3
0520 21
0521 32
0522 15
0523 11
0524 31
0525 7
0526 35
0527 25
0528 19
0529 22
0530 10
0531 12
0532 28
0533 1
0534 28
0535 20
0536 18
0537 19
0538 30
0539 13
0540 1
0541 10
0542 1
0543 28
0544 23
0545 23
0546 20
0547 13
0548 1
0549 26
0550 9
0551 5
0552 10
0553 11
0554 1
0555 22
0556 28
0557 6
0558 35
0559 19
0560 11
0561 1
0562 29
0563 1
0564 7
0565 24
0566 2
0567 8
0568 35
0569 28
0570 10
0571 18
0572 24
0573 7
0574 1
0575 1
0576 29
0577 13
0578 28
0579 7
0580 5
0581 34
0582 9
0583 14
0584 35
0585 19
0586 9
0587 10
0588 12
0589 29
0590 15
0591 33
0592 32
0593 19
0594 9
0595 1
0596 16
0597 2
0598 12
0599 34
0600 6
0601 4
0602 33
0603 18
0604 16
0605 1
0606 21
0607 13
0608 10
0609 2
0610 16
0611 14
0612 7
0613 29
0614 2
0615 24
0616 27
0617 20
0618 2
0619 33
0620 9
0621 20
0622 30